(set-logic QF_S)
(declare-fun var0 () String)
(assert (RegexIn var0 (RegexConcat (RegexPlus (RegexUnion (Str2Reg "000") (Str2Reg "111"))) (RegexConcat (RegexStar (RegexPlus (Str2Reg "22"))) (RegexConcat (RegexStar (RegexUnion (Str2Reg "333") (Str2Reg "44"))) (RegexConcat (RegexStar (RegexPlus (Str2Reg "5"))) (RegexConcat (RegexPlus (RegexStar (Str2Reg "66"))) (RegexConcat (RegexPlus (RegexStar (Str2Reg "777"))) (RegexConcat (RegexUnion (RegexPlus (Str2Reg "88")) (RegexPlus (Str2Reg "99"))) (RegexConcat (RegexUnion (RegexStar (Str2Reg "aaa")) (RegexStar (Str2Reg "bb"))) (RegexConcat (RegexPlus (RegexStar (Str2Reg "c"))) (RegexConcat (RegexUnion (RegexStar (Str2Reg "ddd")) (RegexStar (Str2Reg "ee"))) (RegexConcat (RegexPlus (RegexStar (Str2Reg "ff"))) (RegexConcat (RegexStar (RegexPlus (Str2Reg "ggg"))) (RegexConcat (RegexUnion (RegexPlus (Str2Reg "hh")) (RegexPlus (Str2Reg "iii"))) (RegexConcat (RegexUnion (RegexPlus (Str2Reg "jjj")) (RegexPlus (Str2Reg "kk"))) (RegexConcat (RegexStar (RegexUnion (Str2Reg "lll") (Str2Reg "mmm"))) (RegexConcat (RegexStar (RegexUnion (Str2Reg "n") (Str2Reg "oo"))) (RegexConcat (RegexUnion (RegexStar (Str2Reg "p")) (RegexStar (Str2Reg "q"))) (RegexConcat (RegexStar (RegexUnion (Str2Reg "r") (Str2Reg "s"))) (RegexConcat (RegexStar (RegexPlus (Str2Reg "tt"))) (RegexConcat (RegexPlus (RegexStar (Str2Reg "u"))) (RegexConcat (RegexUnion (RegexPlus (Str2Reg "vvv")) (RegexPlus (Str2Reg "w"))) (RegexConcat (RegexUnion (RegexPlus (Str2Reg "xx")) (RegexPlus (Str2Reg "y"))) (RegexConcat (RegexUnion (RegexUnion (Str2Reg "zzz") (Str2Reg "A")) (RegexUnion (Str2Reg "B") (Str2Reg "C"))) (RegexConcat (RegexStar (RegexStar (Str2Reg "D"))) (RegexConcat (RegexUnion (RegexPlus (Str2Reg "EEE")) (RegexPlus (Str2Reg "F"))) (RegexConcat (RegexUnion (RegexStar (Str2Reg "G")) (RegexStar (Str2Reg "HH"))) (RegexConcat (RegexUnion (RegexPlus (Str2Reg "III")) (RegexPlus (Str2Reg "JJJ"))) (RegexConcat (RegexStar (RegexPlus (Str2Reg "KK"))) (RegexConcat (RegexUnion (RegexPlus (Str2Reg "LL")) (RegexPlus (Str2Reg "MMM"))) (RegexConcat (RegexPlus (RegexPlus (Str2Reg "NNN"))) (RegexConcat (RegexStar (RegexPlus (Str2Reg "OOO"))) (RegexConcat (RegexPlus (RegexPlus (Str2Reg "P"))) (RegexConcat (RegexPlus (RegexUnion (Str2Reg "QQ") (Str2Reg "RR"))) (RegexConcat (RegexStar (RegexStar (Str2Reg "S"))) (RegexConcat (RegexStar (RegexStar (Str2Reg "T"))) (RegexConcat (RegexUnion (RegexPlus (Str2Reg "UUU")) (RegexPlus (Str2Reg "V"))) (RegexConcat (RegexUnion (RegexStar (Str2Reg "W")) (RegexStar (Str2Reg "XXX"))) (RegexConcat (RegexPlus (RegexUnion (Str2Reg "YY") (Str2Reg "Z"))) (RegexConcat (RegexUnion (RegexPlus (Str2Reg "!!")) (RegexPlus (Str2Reg "\"\"\""))) (RegexConcat (RegexPlus (RegexUnion (Str2Reg "##") (Str2Reg "$$"))) (RegexConcat (RegexStar (RegexUnion (Str2Reg "%") (Str2Reg "&"))) (RegexConcat (RegexPlus (RegexUnion (Str2Reg "'''") (Str2Reg "(("))) (RegexStar (RegexPlus (Str2Reg "))")))))))))))))))))))))))))))))))))))))))))))))))
(check-sat)